(set-logic ALL)
(set-option :produce-models true)
(define-fun-rec toLower ((x String) (y String)) Bool 	(or (and (= x "") (= y "")) 		(and (not (= x "")) (not (= y "")) 			(let ((x_head (str.at x 0)) 				(y_head (str.at y 0)) 				(x_tail (str.substr x 1 (- (str.len x) 1))) 				(y_tail (str.substr y 1 (- (str.len y) 1)))) 			(and (= (str.to_code y_head) 				(ite (and (<= 65 (str.to_code x_head)) (<= (str.to_code x_head) 90)) 					(+ (str.to_code x_head) 32) 					(str.to_code x_head))) 				(toLower x_tail y_tail))))))
(declare-fun sym205 () String)
(declare-fun sym328 () String)
(declare-fun sym605 () String)
(declare-fun sym729 () String)
(declare-fun sym363 () String)
(declare-fun sym683 () String)
(declare-fun sym443 () String)
(declare-fun sym289 () String)
(declare-fun sym763 () String)
(declare-fun sym489 () String)
(declare-fun sym523 () String)
(declare-fun sym160 () String)
(declare-fun sym338 () String)
(declare-fun sym739 () String)
(declare-fun sym619 () String)
(declare-fun sym571 () String)
(declare-fun sym175 () String)
(declare-fun sym254 () String)
(declare-fun sym299 () String)
(declare-fun sym453 () String)
(declare-fun sym377 () String)
(declare-fun sym135 () String)
(declare-fun sym773 () String)
(declare-fun sym653 () String)
(declare-fun sym499 () String)
(declare-fun sym533 () String)
(declare-fun sym699 () String)
(declare-fun sym215 () String)
(declare-fun sym413 () String)
(declare-fun sym709 () String)
(declare-fun sym469 () String)
(declare-fun sym20 () String)
(declare-fun sym629 () String)
(declare-fun sym509 () String)
(declare-fun sym264 () String)
(declare-fun sym387 () String)
(declare-fun sym663 () String)
(declare-fun sym543 () String)
(declare-fun sym225 () String)
(declare-fun sym423 () String)
(declare-fun sym581 () String)
(declare-fun sym185 () String)
(declare-fun sym719 () String)
(declare-fun sym557 () String)
(declare-fun sym239 () String)
(declare-fun sym639 () String)
(declare-fun sym595 () String)
(declare-fun sym353 () String)
(declare-fun sym397 () String)
(declare-fun sym673 () String)
(declare-fun sym113 () String)
(declare-fun sym279 () String)
(declare-fun sym433 () String)
(declare-fun sym753 () String)
(declare-fun sym313 () String)
(declare-fun sym479 () String)
(declare-fun sym150 () String)
(declare-fun sym195 () String)
(define-fun Alphabet () RegLan 
	(re.* (re.union (str.to_re "A") (str.to_re "B") (str.to_re "C") (str.to_re "D") (str.to_re "E") (str.to_re "F") (str.to_re "G") (str.to_re "H") (str.to_re "I") (str.to_re "J") (str.to_re "K") (str.to_re "L") (str.to_re "M") (str.to_re "N") (str.to_re "O") (str.to_re "P") (str.to_re "Q") (str.to_re "R") (str.to_re "S") (str.to_re "T") (str.to_re "U") (str.to_re "V") (str.to_re "W") (str.to_re "X") (str.to_re "Y") (str.to_re "Z") (str.to_re "a") (str.to_re "b") (str.to_re "c") (str.to_re "d") (str.to_re "e") (str.to_re "f") (str.to_re "g") (str.to_re "h") (str.to_re "i") (str.to_re "j") (str.to_re "k") (str.to_re "l") (str.to_re "m") (str.to_re "n") (str.to_re "o") (str.to_re "p") (str.to_re "q") (str.to_re "r") (str.to_re "s") (str.to_re "t") (str.to_re "u") (str.to_re "v") (str.to_re "w") (str.to_re "x") (str.to_re "y") (str.to_re "z") ))
)
(declare-fun L101  () String)
(assert (toLower sym413  L101 ))
(declare-fun L80  () String)
(assert (toLower sym605  L80 ))
(declare-fun L84  () String)
(assert (toLower sym338  L84 ))
(declare-fun L40  () String)
(assert (toLower sym353  L40 ))
(declare-fun L2  () String)
(assert (toLower sym509  L2 ))
(declare-fun L72  () String)
(assert (toLower sym773  L72 ))
(declare-fun L60  () String)
(assert (toLower sym523  L60 ))
(declare-fun L92  () String)
(assert (toLower sym619  L92 ))
(declare-fun L88  () String)
(assert (toLower sym363  L88 ))
(declare-fun L44  () String)
(assert (toLower sym557  L44 ))
(declare-fun L6  () String)
(assert (toLower sym377  L6 ))
(declare-fun L76  () String)
(assert (toLower sym433  L76 ))
(declare-fun L32  () String)
(assert (toLower sym489  L32 ))
(declare-fun L64  () String)
(assert (toLower sym709  L64 ))
(declare-fun L20  () String)
(assert (toLower sym443  L20 ))
(declare-fun L96  () String)
(assert (toLower sym719  L96 ))
(declare-fun L52  () String)
(assert (toLower sym753  L52 ))
(declare-fun L48  () String)
(assert (toLower sym763  L48 ))
(declare-fun L36  () String)
(assert (toLower sym729  L36 ))
(declare-fun L68  () String)
(assert (toLower sym313  L68 ))
(declare-fun L24  () String)
(assert (toLower sym673  L24 ))
(declare-fun L56  () String)
(assert (toLower sym571  L56 ))
(declare-fun L12  () String)
(assert (toLower sym479  L12 ))
(declare-fun L28  () String)
(assert (toLower sym264  L28 ))
(declare-fun L16  () String)
(assert (toLower sym205  L16 ))
(declare-fun L112  () String)
(assert (toLower sym453  L112 ))
(declare-fun L100  () String)
(assert (toLower sym20  L100 ))
(declare-fun L1  () String)
(assert (toLower "length"  L1 ))
(declare-fun L108  () String)
(assert (toLower sym387  L108 ))
(declare-fun L5  () String)
(assert (toLower "name"  L5 ))
(declare-fun L25  () String)
(assert (toLower "type"  L25 ))
(declare-fun L90  () String)
(assert (toLower sym328  L90 ))
(declare-fun L103  () String)
(assert (toLower sym423  L103 ))
(declare-fun L0  () String)
(assert (toLower sym683  L0 ))
(declare-fun L62  () String)
(assert (toLower sym653  L62 ))
(declare-fun L94  () String)
(assert (toLower sym739  L94 ))
(declare-fun L50  () String)
(assert (toLower sym699  L50 ))
(declare-fun L82  () String)
(assert (toLower sym185  L82 ))
(declare-fun L4  () String)
(assert (toLower sym239  L4 ))
(declare-fun L70  () String)
(assert (toLower sym225  L70 ))
(declare-fun L66  () String)
(assert (toLower sym397  L66 ))
(declare-fun L22  () String)
(assert (toLower sym469  L22 ))
(declare-fun L98  () String)
(assert (toLower sym215  L98 ))
(declare-fun L54  () String)
(assert (toLower sym113  L54 ))
(declare-fun L10  () String)
(assert (toLower sym533  L10 ))
(declare-fun L86  () String)
(assert (toLower sym299  L86 ))
(declare-fun L42  () String)
(assert (toLower sym543  L42 ))
(declare-fun L8  () String)
(assert (toLower sym254  L8 ))
(declare-fun L74  () String)
(assert (toLower sym499  L74 ))
(declare-fun L30  () String)
(assert (toLower sym135  L30 ))
(declare-fun L26  () String)
(assert (toLower sym279  L26 ))
(declare-fun L58  () String)
(assert (toLower sym289  L58 ))
(declare-fun L14  () String)
(assert (toLower sym595  L14 ))
(declare-fun L46  () String)
(assert (toLower sym150  L46 ))
(declare-fun L78  () String)
(assert (toLower sym195  L78 ))
(declare-fun L34  () String)
(assert (toLower sym639  L34 ))
(declare-fun L18  () String)
(assert (toLower sym160  L18 ))
(declare-fun L38  () String)
(assert (toLower sym581  L38 ))
(declare-fun L114  () String)
(assert (toLower sym629  L114 ))
(declare-fun L110  () String)
(assert (toLower sym175  L110 ))
(declare-fun L71  () String)
(assert (toLower "table"  L71 ))
(declare-fun L3  () String)
(assert (toLower "option"  L3 ))
(declare-fun L55  () String)
(assert (toLower "database"  L55 ))
(declare-fun L11  () String)
(assert (toLower "description"  L11 ))
(declare-fun L43  () String)
(assert (toLower "field"  L43 ))
(declare-fun L106  () String)
(assert (toLower sym663  L106 ))

(assert (str.in_re sym195 Alphabet))
(assert (str.in_re sym150 Alphabet))
(assert (str.in_re sym479 Alphabet))
(assert (str.in_re sym313 Alphabet))
(assert (str.in_re sym753 Alphabet))
(assert (str.in_re sym433 Alphabet))
(assert (str.in_re sym279 Alphabet))
(assert (str.in_re sym113 Alphabet))
(assert (str.in_re sym673 Alphabet))
(assert (str.in_re sym397 Alphabet))
(assert (str.in_re sym353 Alphabet))
(assert (str.in_re sym595 Alphabet))
(assert (str.in_re sym639 Alphabet))
(assert (str.in_re sym239 Alphabet))
(assert (str.in_re sym557 Alphabet))
(assert (str.in_re sym719 Alphabet))
(assert (str.in_re sym185 Alphabet))
(assert (str.in_re sym581 Alphabet))
(assert (str.in_re sym423 Alphabet))
(assert (str.in_re sym225 Alphabet))
(assert (str.in_re sym543 Alphabet))
(assert (str.in_re sym663 Alphabet))
(assert (str.in_re sym387 Alphabet))
(assert (str.in_re sym264 Alphabet))
(assert (str.in_re sym509 Alphabet))
(assert (str.in_re sym629 Alphabet))
(assert (str.in_re sym20 Alphabet))
(assert (str.in_re sym469 Alphabet))
(assert (str.in_re sym709 Alphabet))
(assert (str.in_re sym413 Alphabet))
(assert (str.in_re sym215 Alphabet))
(assert (str.in_re sym699 Alphabet))
(assert (str.in_re sym533 Alphabet))
(assert (str.in_re sym499 Alphabet))
(assert (str.in_re sym653 Alphabet))
(assert (str.in_re sym773 Alphabet))
(assert (str.in_re sym135 Alphabet))
(assert (str.in_re sym377 Alphabet))
(assert (str.in_re sym453 Alphabet))
(assert (str.in_re sym299 Alphabet))
(assert (str.in_re sym254 Alphabet))
(assert (str.in_re sym175 Alphabet))
(assert (str.in_re sym571 Alphabet))
(assert (str.in_re sym619 Alphabet))
(assert (str.in_re sym739 Alphabet))
(assert (str.in_re sym338 Alphabet))
(assert (str.in_re sym160 Alphabet))
(assert (str.in_re sym523 Alphabet))
(assert (str.in_re sym489 Alphabet))
(assert (str.in_re sym763 Alphabet))
(assert (str.in_re sym289 Alphabet))
(assert (str.in_re sym443 Alphabet))
(assert (str.in_re sym683 Alphabet))
(assert (str.in_re sym363 Alphabet))
(assert (str.in_re sym729 Alphabet))
(assert (str.in_re sym605 Alphabet))
(assert (str.in_re sym328 Alphabet))
(assert (str.in_re sym205 Alphabet))
(assert (= L0 L1 ))
(assert (= L2 L3 ))
(assert (= L4 L5 ))
(assert (not (= L6 L5 )))
(assert (not (= L8 L5 )))
(assert (not (= L10 L11 )))
(assert (not (= L12 L11 )))
(assert (not (= L14 L5 )))
(assert (not (= L16 L5 )))
(assert (= L18 L11 ))
(assert (not (= L20 L1 )))
(assert (not (= L22 L5 )))
(assert (not (= L24 L25 )))
(assert (not (= L26 L5 )))
(assert (= L28 L11 ))
(assert (= L30 L5 ))
(assert (not (= L32 L25 )))
(assert (= L34 L25 ))
(assert (not (= L36 L1 )))
(assert (= L38 L11 ))
(assert (not (= L40 L5 )))
(assert (= L42 L43 ))
(assert (= L44 L5 ))
(assert (not (= L46 L5 )))
(assert (not (= L48 L11 )))
(assert (not (= L50 L5 )))
(assert (not (= L52 L5 )))
(assert (= L54 L55 ))
(assert (not (= L56 L5 )))
(assert (not (= L58 L11 )))
(assert (not (= L60 L5 )))
(assert (not (= L62 L5 )))
(assert (not (= L64 L11 )))
(assert (= L66 L25 ))
(assert (= L68 L5 ))
(assert (= L70 L71 ))
(assert (not (= L72 L43 )))
(assert (not (= L74 L1 )))
(assert (not (= L76 L25 )))
(assert (not (= L78 L71 )))
(assert (= L80 L11 ))
(assert (not (= L82 L11 )))
(assert (= L84 L11 ))
(assert (= L86 L43 ))
(assert (= L88 L11 ))
(assert (not (= L90 L5 )))
(assert (not (= L92 L5 )))
(assert (= L94 L3 ))
(assert (not (= L96 L25 )))
(assert (not (= L98 L11 )))
(assert (not (= L100 "sql" )))
(assert (not (= L101 L5 )))
(assert (not (= L103 L11 )))
(assert (= L100 "html" ))
(assert (not (= L106 L11 )))
(assert (not (= L108 L11 )))
(assert (not (= L110 L5 )))
(assert (= L112 L3 ))
(assert (not (= L114 L11 )))
(check-sat)
(get-model)
(exit)
